c Reduced graph for GEOM50 generated by Cyril Grelier
p edge 41 103
e 1 2
e 1 3
e 1 13
e 1 23
e 1 25
e 1 30
e 1 36
e 2 23
e 2 25
e 2 32
e 2 33
e 2 36
e 3 11
e 3 13
e 3 23
e 3 25
e 3 30
e 4 5
e 4 8
e 4 17
e 4 31
e 4 38
e 5 31
e 6 13
e 6 27
e 7 16
e 7 41
e 8 17
e 8 31
e 8 34
e 8 38
e 8 41
e 9 12
e 9 18
e 9 35
e 9 39
e 9 40
e 10 20
e 10 22
e 11 15
e 11 23
e 11 24
e 11 25
e 11 30
e 12 18
e 12 35
e 12 39
e 12 40
e 13 23
e 14 29
e 14 32
e 14 33
e 14 36
e 15 30
e 15 35
e 16 19
e 16 21
e 16 26
e 16 34
e 16 41
e 17 26
e 17 31
e 17 34
e 17 38
e 18 35
e 18 39
e 18 40
e 19 21
e 19 26
e 19 34
e 19 41
e 20 22
e 20 27
e 21 27
e 22 27
e 23 24
e 23 25
e 23 30
e 24 25
e 24 28
e 24 30
e 24 37
e 25 28
e 25 30
e 25 37
e 26 34
e 26 38
e 28 32
e 28 37
e 29 33
e 29 36
e 31 34
e 31 38
e 32 33
e 32 36
e 32 37
e 33 36
e 33 37
e 34 38
e 34 41
e 35 39
e 35 40
e 39 40
